(set-logic QF_NRA)
(declare-fun skoY () Real)
(declare-fun skoX () Real)
(declare-fun skoZ () Real)
(assert (and (<= (+ (* (- 3) (* skoX skoX)) (* 12 (* skoY skoX)) (* (- 6) (* skoY skoY)) (* (- 6) (* skoY skoZ)) (* (- 6) (* skoX skoZ)) (* (- 3) (* skoZ skoZ)) (* (- 10) (* skoY skoY skoX skoX)) (* 4 (* skoY skoY skoY skoX)) (* 6 (* skoY skoX skoX skoZ)) (* 4 (* skoY skoY skoX skoZ)) (* (- 2) (* skoY skoY skoY skoZ)) (* 6 (* skoY skoX skoZ skoZ)) (* (- 1) (* skoY skoY skoZ skoZ)) (* (- 1) (* skoY skoY skoY skoY)) (* (- 3) (* skoY skoY skoY skoY skoX skoX)) (* 2 (* skoY skoY skoY skoX skoX skoZ)) (* 2 (* skoY skoY skoY skoY skoX skoZ)) (* (- 3) (* skoY skoY skoX skoX skoZ skoZ)) (* 2 (* skoY skoY skoY skoX skoZ skoZ)) (* (- 1) (* skoY skoY skoY skoY skoX skoX skoZ skoZ))) 9) (and (<= (+ (* 3 (* skoX skoX)) (* (- 12) (* skoY skoX)) (* 6 (* skoY skoY)) (* 6 (* skoY skoZ)) (* 6 (* skoX skoZ)) (* 3 (* skoZ skoZ)) (* 10 (* skoY skoY skoX skoX)) (* (- 4) (* skoY skoY skoY skoX)) (* (- 6) (* skoY skoX skoX skoZ)) (* (- 4) (* skoY skoY skoX skoZ)) (* 2 (* skoY skoY skoY skoZ)) (* (- 6) (* skoY skoX skoZ skoZ)) (* skoY skoY skoZ skoZ) (* skoY skoY skoY skoY) (* 3 (* skoY skoY skoY skoY skoX skoX)) (* (- 2) (* skoY skoY skoY skoX skoX skoZ)) (* (- 2) (* skoY skoY skoY skoY skoX skoZ)) (* 3 (* skoY skoY skoX skoX skoZ skoZ)) (* (- 2) (* skoY skoY skoY skoX skoZ skoZ)) (* skoY skoY skoY skoY skoX skoX skoZ skoZ)) (- 9)) (and (not (<= (* (- 1) skoY) 0)) (and (not (<= (+ (* (- 36) skoX) (* (- 36) skoZ) (* (- 3) (* skoX skoX)) (* 12 (* skoY skoX)) (* (- 6) (* skoY skoY)) (* (- 6) (* skoY skoZ)) (* (- 6) (* skoX skoZ)) (* (- 3) (* skoZ skoZ)) (* 48 (* skoY skoX skoX)) (* (- 24) (* skoY skoY skoX)) (* 96 (* skoY skoX skoZ)) (* 12 (* skoY skoY skoZ)) (* 12 (* skoY skoZ skoZ)) (* (- 10) (* skoY skoY skoX skoX)) (* 4 (* skoY skoY skoY skoX)) (* 6 (* skoY skoX skoX skoZ)) (* 4 (* skoY skoY skoX skoZ)) (* (- 2) (* skoY skoY skoY skoZ)) (* 6 (* skoY skoX skoZ skoZ)) (* (- 1) (* skoY skoY skoZ skoZ)) (* (- 1) (* skoY skoY skoY skoY)) (* 48 (* skoY skoY skoY skoX skoX)) (* 12 (* skoY skoY skoY skoY skoX)) (* (- 60) (* skoY skoY skoX skoX skoZ)) (* (- 24) (* skoY skoY skoX skoZ skoZ)) (* (- 3) (* skoY skoY skoY skoY skoX skoX)) (* 2 (* skoY skoY skoY skoX skoX skoZ)) (* 2 (* skoY skoY skoY skoY skoX skoZ)) (* (- 3) (* skoY skoY skoX skoX skoZ skoZ)) (* 2 (* skoY skoY skoY skoX skoZ skoZ)) (* (- 12) (* skoY skoY skoY skoY skoX skoX skoZ)) (* 12 (* skoY skoY skoY skoX skoX skoZ skoZ)) (* (- 1) (* skoY skoY skoY skoY skoX skoX skoZ skoZ))) 9)) (and (or (<= (* (- 1) skoY) 0) (<= (+ skoY skoX skoZ (* skoY skoX) (* (- 1) (* skoY skoX skoZ))) 1)) (and (or (not (<= (* (- 1) skoY) 0)) (<= (+ (* (- 1) skoY) (* (- 1) skoX) (* (- 1) skoZ) (* skoY skoX skoZ)) 0)) (and (not (<= skoZ 0)) (and (not (<= skoX (- 1))) (and (not (<= (* (- 1) skoY) (- 1))) (not (<= (+ skoY (* (- 1) skoX)) 0))))))))))))
(set-info :status unsat)
(check-sat)
